1 1 -2 0
1 -1 -3 0
1 -4 -5 0
1 -4 1 0
1 6 7 0
1 6 8 0
1 6 5 0
1 -8 9 0
1 -8 -7 0
1 -8 6 0
1 2 -10 0
1 -2 1 0
1 -11 1 0
1 5 12 0
1 -5 -8 0
1 5 4 0
1 5 13 0
1 5 -6 0
1 -5 -1 0
1 -5 3 0
1 -3 -14 0
1 -3 -8 0
1 -3 15 0
1 -3 1 0
1 16 7 0
1 -16 -17 0
1 -16 -11 0
1 -18 19 0
1 -18 20 0
1 18 11 0
1 -10 17 0
1 10 11 0
1 17 16 0
1 -17 21 0
1 -17 6 0
1 -7 22 0
1 -7 -23 0
1 7 21 0
1 7 -24 0
1 7 -25 0
1 -7 -6 0
1 19 26 0
1 -19 10 0
1 -19 13 0
1 9 -27 0
1 -9 16 0
1 -9 25 0
1 9 28 0
1 29 23 0
1 -29 -17 0
1 29 30 0
1 23 31 0
1 24 7 0
1 24 -32 0
1 -24 17 0
1 24 30 0
1 22 7 0
1 22 -24 0
1 -22 20 0
1 -20 23 0
1 20 -31 0
1 20 -18 0
1 31 -29 0
1 31 20 0
1 30 33 0
1 -30 21 0
1 -30 -29 0
1 -30 18 0
1 34 -21 0
1 -34 -35 0
1 -36 -37 0
1 36 -12 0
1 36 -38 0
1 -14 -37 0
1 -14 -38 0
1 -14 5 0
1 -14 39 0
1 -14 40 0
1 -38 -26 0
1 38 14 0
1 -38 15 0
1 41 26 0
1 -41 12 0
1 41 32 0
1 -41 -15 0
1 41 -36 0
1 42 -14 0
1 42 15 0
1 -42 36 0
1 -13 -27 0
1 -13 -43 0
1 13 41 0
1 -13 40 0
1 13 11 0
1 27 -43 0
1 27 -19 0
1 27 -41 0
1 27 -40 0
1 27 3 0
1 32 44 0
1 -32 19 0
1 -32 24 0
1 26 -45 0
1 26 22 0
1 26 -19 0
1 26 -32 0
1 -26 -41 0
1 26 -40 0
1 26 -46 0
1 44 26 0
1 -44 21 0
1 -44 32 0
1 -44 40 0
1 -40 44 0
1 -40 13 0
1 43 26 0
1 -43 -13 0
1 43 15 0
1 39 15 0
1 21 -45 0
1 -21 9 0
1 -21 -47 0
1 -21 -28 0
1 -28 7 0
1 -28 34 0
1 28 -21 0
1 28 -19 0
1 -28 -17 0
1 -33 -34 0
1 33 44 0
1 33 -47 0
1 33 -30 0
1 33 -40 0
1 35 45 0
1 35 33 0
1 35 48 0
1 -35 47 0
1 -35 46 0
1 35 40 0
1 -47 45 0
1 -47 2 0
1 47 -28 0
1 -45 -26 0
1 -45 -11 0
1 45 35 0
1 -45 -28 0
1 48 -46 0
1 -48 28 0
1 -46 33 0
1 46 48 0
1 -46 -32 0
1 -46 28 0
